SCIP Status        : problem creation / modification
Total Time         :       0.00
  reading          :       0.00
Original Problem   :
  Problem name     : main4.zpl
  Variables        : 355 (355 binary, 0 integer, 0 implicit integer, 0 continuous)
  Constraints      : 0 initial, 425 maximal
  Objective        : minimize, 355 non-zeros (abs.min = 0.00544, abs.max = 5700)
